c description: Random 3-CNF over 23 variables and 98 clauses
c generator: CNFgen (0.9.2)
c copyright: (C) 2012-2022 Massimo Lauria <massimo.lauria@uniroma1.it>
c url: https://massimolauria.net/cnfgen
c command line: cnfgen --output CNF_4.28/23_bit_98_405.cnf randkcnf 3 23 98
c
p cnf 23 98
-5 -6 -23 0
-3 5 -20 0
-3 -7 -14 0
-1 15 -22 0
-1 3 16 0
17 -20 21 0
-1 5 -12 0
2 -3 -12 0
-3 5 14 0
-3 7 18 0
3 7 18 0
3 4 -8 0
-15 16 -19 0
12 -14 20 0
-1 17 -23 0
-2 16 -19 0
3 -4 -8 0
2 -15 20 0
9 11 21 0
8 12 19 0
8 -13 -21 0
-12 -14 -18 0
14 -18 22 0
4 11 -12 0
-5 -13 -16 0
10 14 -20 0
2 10 18 0
6 11 -12 0
4 19 21 0
-1 -4 23 0
20 21 23 0
18 19 20 0
1 18 -19 0
12 -17 20 0
-3 -4 -19 0
-4 6 8 0
-3 10 -15 0
6 8 -11 0
5 15 19 0
-1 8 -23 0
10 13 17 0
-2 -11 22 0
-7 -10 22 0
-6 7 9 0
-3 -15 18 0
-2 6 11 0
-8 13 18 0
1 5 -8 0
-4 -5 7 0
7 9 23 0
3 -4 -20 0
2 -6 -16 0
9 -10 21 0
11 -18 -19 0
6 -18 -20 0
2 11 16 0
-2 -6 -14 0
3 7 22 0
-4 11 12 0
-11 -12 21 0
-9 20 22 0
-14 20 23 0
-11 18 20 0
-3 -5 15 0
3 13 20 0
3 18 -21 0
-4 13 20 0
-2 -14 22 0
8 11 14 0
-9 -14 20 0
-5 -11 22 0
5 11 -22 0
9 16 -17 0
1 7 -21 0
-13 -20 23 0
-12 14 -23 0
3 -19 21 0
2 12 -13 0
8 -12 -17 0
-9 20 -23 0
-4 8 19 0
6 -18 -23 0
-1 -6 -16 0
-3 9 10 0
3 -18 -21 0
-13 -18 -21 0
-5 -8 -14 0
-8 13 -22 0
-6 -8 -14 0
-10 -19 -20 0
1 5 14 0
1 5 10 0
2 9 22 0
-16 -18 23 0
5 10 -14 0
-2 -6 -22 0
-7 -8 9 0
3 13 -20 0
